(set-info :Origin "This instance was generated by: BanditFuzz-- an RL fuzzer for SMT solvers" )
(set-info :Author "Joe Scott, Fed Mora, Vijay Ganesh" )
(set-info :Contact "Joe Scott, joseph.scott@uwaterloo.ca")
(set-logic QF_BV)
(declare-const bool_0 Bool)
(declare-const bool_1 Bool)
(declare-const bool_2 Bool)
(declare-const bool_3 Bool)
(declare-const bool_4 Bool)
(declare-const bv_0 (_ BitVec 32))
(declare-const bv_1 (_ BitVec 32))
(declare-const bv_2 (_ BitVec 32))
(declare-const bv_3 (_ BitVec 32))
(declare-const bv_4 (_ BitVec 32))
(assert (bvsge (bvmul (bvsmod bv_0 bv_1) (bvxor #x043b8ebd  #xa43df99a )) (bvor (bvnor #x9478ce5b  bv_1) (bvxnor #x328cbb61  bv_0))))
(assert (xor (and (bvsge bv_3 #x8c1a91c6 ) (bvsge #xd704ef2a  #xca231db1 )) (bvsle (bvnor #x1195ab42  #x460ba7e0 ) (bvlshr bv_0 bv_2))))
(assert (bvugt (bvadd (bvlshr #x213ad783  #x033d9da0 ) (bvlshr #x859ea6e7  #x4c50df86 )) (bvsmod (bvurem #xcc88896b  #xd95fce0d ) (bvshl #x960623eb  bv_2))))
(assert (bvult (bvadd (bvudiv bv_0 bv_0) (bvsmod bv_3 #x71f3a23d )) (bvadd (bvudiv #x7b665f6e  #x71c4c6af ) (bvadd bv_4 #x22a38d83 ))))
(assert (bvult (bvurem (bvsrem #x15e59cf2  #x10989bc6 ) (bvmul bv_1 bv_0)) (bvsdiv (bvsdiv #x6ef65aec  bv_4) (bvnor #x87584554  #x6c72b8a3 ))))
(check-sat)
(exit)
